70
1 0 23
2 0 1
2 1 20
3 0 41
3 1 26
3 2 90
4 0 14
4 1 100
4 2 50
4 3 19
5 0 49
5 1 14
5 2 35
5 3 9
5 4 59
6 0 48
6 1 14
6 2 91
6 3 63
6 4 80
6 5 15
7 0 41
7 1 84
7 2 29
7 3 16
7 4 39
7 5 22
7 6 93
8 0 89
8 1 59
8 2 92
8 3 81
8 4 16
8 5 54
8 6 67
8 7 73
9 0 74
9 1 19
9 2 84
9 3 36
9 4 10
9 5 35
9 6 3
9 7 75
9 8 58
10 0 13
10 1 26
10 2 96
10 3 70
10 4 19
10 5 10
10 6 23
10 7 60
10 8 32
10 9 52
11 0 80
11 1 88
11 2 55
11 3 9
11 4 40
11 5 27
11 6 6
11 7 77
11 8 99
11 9 89
11 10 52
12 0 69
12 1 27
12 2 13
12 3 44
12 4 40
12 5 7
12 6 36
12 7 87
12 8 65
12 9 52
12 10 89
12 11 50
13 0 55
13 1 82
13 2 8
13 3 88
13 4 75
13 5 82
13 6 39
13 7 47
13 8 3
13 9 82
13 10 79
13 11 61
13 12 32
14 0 26
14 1 87
14 2 68
14 3 16
14 4 26
14 5 54
14 6 6
14 7 4
14 8 18
14 9 9
14 10 61
14 11 16
14 12 56
14 13 17
15 0 75
15 1 50
15 2 18
15 3 77
15 4 55
15 5 40
15 6 22
15 7 36
15 8 14
15 9 84
15 10 51
15 11 85
15 12 49
15 13 18
15 14 49
16 0 77
16 1 49
16 2 18
16 3 51
16 4 14
16 5 58
16 6 40
16 7 24
16 8 72
16 9 63
16 10 30
16 11 65
16 12 70
16 13 73
16 14 77
16 15 66
17 0 1
17 1 4
17 2 87
17 3 48
17 4 69
17 5 91
17 6 88
17 7 21
17 8 28
17 9 92
17 10 8
17 11 20
17 12 89
17 13 55
17 14 82
17 15 32
17 16 48
18 0 61
18 1 82
18 2 12
18 3 68
18 4 63
18 5 70
18 6 39
18 7 91
18 8 90
18 9 18
18 10 80
18 11 83
18 12 82
18 13 62
18 14 54
18 15 32
18 16 74
18 17 56
19 0 9
19 1 54
19 2 41
19 3 65
19 4 64
19 5 65
19 6 87
19 7 7
19 8 72
19 9 42
19 10 24
19 11 23
19 12 10
19 13 76
19 14 79
19 15 58
19 16 93
19 17 75
19 18 35
20 0 52
20 1 92
20 2 87
20 3 70
20 4 1
20 5 63
20 6 53
20 7 78
20 8 23
20 9 57
20 10 95
20 11 74
20 12 33
20 13 50
20 14 99
20 15 1
20 16 37
20 17 4
20 18 77
20 19 22
21 0 70
21 1 70
21 2 77
21 3 47
21 4 54
21 5 75
21 6 3
21 7 19
21 8 45
21 9 59
21 10 56
21 11 82
21 12 6
21 13 66
21 14 3
21 15 90
21 16 11
21 17 89
21 18 50
21 19 29
21 20 66
22 0 23
22 1 48
22 2 68
22 3 26
22 4 95
22 5 95
22 6 65
22 7 8
22 8 54
22 9 82
22 10 72
22 11 57
22 12 49
22 13 8
22 14 42
22 15 9
22 16 30
22 17 69
22 18 19
22 19 47
22 20 40
22 21 78
23 0 61
23 1 57
23 2 2
23 3 93
23 4 34
23 5 17
23 6 99
23 7 42
23 8 70
23 9 94
23 10 5
23 11 74
23 12 91
23 13 19
23 14 32
23 15 92
23 16 20
23 17 62
23 18 79
23 19 28
23 20 51
23 21 34
23 22 6
24 0 70
24 1 38
24 2 91
24 3 76
24 4 54
24 5 30
24 6 14
24 7 30
24 8 88
24 9 63
24 10 82
24 11 87
24 12 59
24 13 70
24 14 70
24 15 93
24 16 40
24 17 1
24 18 42
24 19 50
24 20 11
24 21 35
24 22 12
24 23 6
25 0 44
25 1 38
25 2 4
25 3 85
25 4 33
25 5 5
25 6 20
25 7 89
25 8 60
25 9 72
25 10 5
25 11 2
25 12 18
25 13 9
25 14 79
25 15 69
25 16 55
25 17 8
25 18 49
25 19 42
25 20 94
25 21 45
25 22 43
25 23 17
25 24 41
26 0 67
26 1 22
26 2 88
26 3 100
26 4 40
26 5 60
26 6 4
26 7 47
26 8 60
26 9 1
26 10 9
26 11 25
26 12 1
26 13 26
26 14 92
26 15 80
26 16 76
26 17 7
26 18 78
26 19 43
26 20 4
26 21 5
26 22 41
26 23 14
26 24 36
26 25 58
27 0 19
27 1 21
27 2 70
27 3 69
27 4 58
27 5 60
27 6 59
27 7 65
27 8 24
27 9 24
27 10 89
27 11 15
27 12 51
27 13 82
27 14 94
27 15 19
27 16 11
27 17 83
27 18 22
27 19 94
27 20 40
27 21 75
27 22 68
27 23 35
27 24 43
27 25 71
27 26 52
28 0 18
28 1 61
28 2 100
28 3 93
28 4 80
28 5 84
28 6 36
28 7 18
28 8 84
28 9 29
28 10 82
28 11 95
28 12 55
28 13 30
28 14 44
28 15 94
28 16 66
28 17 100
28 18 52
28 19 1
28 20 69
28 21 66
28 22 78
28 23 51
28 24 38
28 25 85
28 26 75
28 27 43
29 0 57
29 1 97
29 2 46
29 3 64
29 4 56
29 5 66
29 6 97
29 7 28
29 8 99
29 9 15
29 10 46
29 11 8
29 12 65
29 13 67
29 14 91
29 15 20
29 16 79
29 17 33
29 18 48
29 19 88
29 20 81
29 21 20
29 22 28
29 23 88
29 24 45
29 25 49
29 26 15
29 27 65
29 28 86
30 0 92
30 1 33
30 2 65
30 3 10
30 4 92
30 5 54
30 6 18
30 7 2
30 8 6
30 9 70
30 10 79
30 11 52
30 12 88
30 13 12
30 14 98
30 15 75
30 16 16
30 17 21
30 18 90
30 19 58
30 20 6
30 21 82
30 22 15
30 23 45
30 24 89
30 25 84
30 26 96
30 27 63
30 28 33
30 29 69
31 0 26
31 1 19
31 2 35
31 3 69
31 4 55
31 5 38
31 6 22
31 7 67
31 8 49
31 9 28
31 10 33
31 11 13
31 12 64
31 13 72
31 14 67
31 15 87
31 16 76
31 17 1
31 18 22
31 19 88
31 20 63
31 21 94
31 22 61
31 23 99
31 24 25
31 25 4
31 26 83
31 27 41
31 28 95
31 29 5
31 30 75
32 0 32
32 1 73
32 2 12
32 3 80
32 4 10
32 5 83
32 6 36
32 7 13
32 8 77
32 9 40
32 10 38
32 11 95
32 12 85
32 13 74
32 14 23
32 15 99
32 16 57
32 17 53
32 18 91
32 19 23
32 20 39
32 21 94
32 22 10
32 23 38
32 24 95
32 25 57
32 26 3
32 27 68
32 28 6
32 29 68
32 30 56
32 31 7
33 0 48
33 1 8
33 2 77
33 3 84
33 4 30
33 5 59
33 6 88
33 7 15
33 8 45
33 9 12
33 10 4
33 11 23
33 12 52
33 13 61
33 14 48
33 15 100
33 16 87
33 17 48
33 18 3
33 19 41
33 20 85
33 21 21
33 22 86
33 23 95
33 24 52
33 25 36
33 26 27
33 27 90
33 28 15
33 29 10
33 30 48
33 31 29
33 32 56
34 0 91
34 1 100
34 2 79
34 3 88
34 4 24
34 5 8
34 6 93
34 7 32
34 8 15
34 9 10
34 10 27
34 11 28
34 12 32
34 13 4
34 14 49
34 15 52
34 16 82
34 17 38
34 18 68
34 19 46
34 20 59
34 21 7
34 22 99
34 23 74
34 24 61
34 25 43
34 26 65
34 27 71
34 28 12
34 29 99
34 30 95
34 31 33
34 32 29
34 33 83
35 0 67
35 1 73
35 2 38
35 3 84
35 4 15
35 5 48
35 6 20
35 7 90
35 8 77
35 9 15
35 10 36
35 11 3
35 12 77
35 13 87
35 14 70
35 15 84
35 16 61
35 17 89
35 18 88
35 19 97
35 20 18
35 21 36
35 22 96
35 23 39
35 24 70
35 25 85
35 26 52
35 27 54
35 28 10
35 29 30
35 30 65
35 31 85
35 32 9
35 33 44
35 34 73
36 0 12
36 1 46
36 2 90
36 3 6
36 4 72
36 5 5
36 6 45
36 7 55
36 8 58
36 9 58
36 10 22
36 11 9
36 12 57
36 13 32
36 14 73
36 15 44
36 16 63
36 17 10
36 18 16
36 19 59
36 20 65
36 21 36
36 22 18
36 23 91
36 24 24
36 25 14
36 26 15
36 27 72
36 28 64
36 29 14
36 30 68
36 31 6
36 32 45
36 33 33
36 34 80
36 35 56
37 0 14
37 1 86
37 2 19
37 3 97
37 4 16
37 5 98
37 6 22
37 7 68
37 8 41
37 9 36
37 10 83
37 11 14
37 12 35
37 13 13
37 14 40
37 15 17
37 16 76
37 17 35
37 18 21
37 19 57
37 20 30
37 21 80
37 22 13
37 23 42
37 24 14
37 25 31
37 26 60
37 27 1
37 28 27
37 29 5
37 30 7
37 31 40
37 32 49
37 33 37
37 34 46
37 35 86
37 36 4
38 0 30
38 1 34
38 2 84
38 3 27
38 4 65
38 5 78
38 6 19
38 7 5
38 8 39
38 9 23
38 10 72
38 11 68
38 12 71
38 13 75
38 14 41
38 15 41
38 16 96
38 17 50
38 18 75
38 19 9
38 20 43
38 21 30
38 22 11
38 23 34
38 24 54
38 25 71
38 26 16
38 27 25
38 28 100
38 29 90
38 30 52
38 31 68
38 32 99
38 33 19
38 34 46
38 35 56
38 36 38
38 37 26
39 0 11
39 1 73
39 2 61
39 3 7
39 4 54
39 5 22
39 6 74
39 7 33
39 8 84
39 9 14
39 10 62
39 11 87
39 12 72
39 13 43
39 14 51
39 15 16
39 16 60
39 17 20
39 18 31
39 19 19
39 20 9
39 21 41
39 22 38
39 23 2
39 24 20
39 25 13
39 26 57
39 27 2
39 28 87
39 29 59
39 30 88
39 31 46
39 32 59
39 33 79
39 34 6
39 35 5
39 36 11
39 37 45
39 38 86
40 0 59
40 1 69
40 2 37
40 3 80
40 4 66
40 5 25
40 6 68
40 7 68
40 8 29
40 9 36
40 10 51
40 11 37
40 12 87
40 13 11
40 14 96
40 15 23
40 16 69
40 17 3
40 18 45
40 19 51
40 20 2
40 21 81
40 22 96
40 23 56
40 24 51
40 25 45
40 26 52
40 27 44
40 28 38
40 29 100
40 30 8
40 31 58
40 32 69
40 33 12
40 34 69
40 35 41
40 36 49
40 37 7
40 38 38
40 39 14
41 0 93
41 1 85
41 2 52
41 3 8
41 4 43
41 5 67
41 6 20
41 7 26
41 8 49
41 9 92
41 10 11
41 11 16
41 12 82
41 13 24
41 14 99
41 15 84
41 16 86
41 17 49
41 18 45
41 19 79
41 20 79
41 21 76
41 22 90
41 23 31
41 24 73
41 25 52
41 26 79
41 27 19
41 28 59
41 29 63
41 30 49
41 31 96
41 32 84
41 33 96
41 34 40
41 35 14
41 36 25
41 37 68
41 38 22
41 39 12
41 40 12
42 0 48
42 1 37
42 2 64
42 3 86
42 4 31
42 5 12
42 6 98
42 7 69
42 8 44
42 9 78
42 10 40
42 11 91
42 12 87
42 13 14
42 14 38
42 15 13
42 16 42
42 17 89
42 18 62
42 19 19
42 20 100
42 21 76
42 22 10
42 23 72
42 24 95
42 25 73
42 26 43
42 27 80
42 28 37
42 29 28
42 30 25
42 31 84
42 32 87
42 33 76
42 34 73
42 35 77
42 36 25
42 37 29
42 38 7
42 39 32
42 40 82
42 41 80
43 0 74
43 1 68
43 2 57
43 3 92
43 4 84
43 5 9
43 6 38
43 7 12
43 8 78
43 9 94
43 10 81
43 11 20
43 12 25
43 13 63
43 14 37
43 15 85
43 16 93
43 17 11
43 18 26
43 19 21
43 20 83
43 21 85
43 22 80
43 23 38
43 24 82
43 25 83
43 26 29
43 27 40
43 28 89
43 29 64
43 30 91
43 31 25
43 32 29
43 33 79
43 34 86
43 35 64
43 36 45
43 37 90
43 38 93
43 39 96
43 40 33
43 41 34
43 42 8
44 0 42
44 1 73
44 2 37
44 3 93
44 4 27
44 5 66
44 6 12
44 7 2
44 8 82
44 9 64
44 10 69
44 11 34
44 12 40
44 13 77
44 14 32
44 15 52
44 16 66
44 17 80
44 18 46
44 19 59
44 20 77
44 21 56
44 22 3
44 23 34
44 24 39
44 25 53
44 26 47
44 27 45
44 28 61
44 29 33
44 30 8
44 31 23
44 32 9
44 33 45
44 34 88
44 35 43
44 36 10
44 37 55
44 38 8
44 39 41
44 40 31
44 41 4
44 42 68
44 43 89
45 0 42
45 1 87
45 2 98
45 3 85
45 4 3
45 5 70
45 6 97
45 7 30
45 8 29
45 9 88
45 10 74
45 11 11
45 12 33
45 13 90
45 14 61
45 15 8
45 16 41
45 17 22
45 18 51
45 19 89
45 20 31
45 21 77
45 22 68
45 23 65
45 24 45
45 25 35
45 26 100
45 27 13
45 28 69
45 29 78
45 30 28
45 31 7
45 32 90
45 33 67
45 34 37
45 35 90
45 36 61
45 37 90
45 38 12
45 39 91
45 40 45
45 41 40
45 42 19
45 43 74
45 44 14
46 0 77
46 1 54
46 2 64
46 3 27
46 4 69
46 5 2
46 6 87
46 7 5
46 8 41
46 9 27
46 10 27
46 11 82
46 12 54
46 13 5
46 14 81
46 15 16
46 16 100
46 17 53
46 18 61
46 19 52
46 20 96
46 21 31
46 22 88
46 23 6
46 24 3
46 25 4
46 26 63
46 27 97
46 28 93
46 29 3
46 30 12
46 31 41
46 32 64
46 33 25
46 34 50
46 35 4
46 36 60
46 37 46
46 38 3
46 39 50
46 40 40
46 41 50
46 42 79
46 43 53
46 44 27
46 45 91
47 0 84
47 1 51
47 2 6
47 3 47
47 4 28
47 5 65
47 6 65
47 7 26
47 8 54
47 9 99
47 10 94
47 11 42
47 12 94
47 13 9
47 14 89
47 15 62
47 16 37
47 17 1
47 18 24
47 19 88
47 20 53
47 21 93
47 22 86
47 23 52
47 24 21
47 25 55
47 26 90
47 27 2
47 28 38
47 29 9
47 30 19
47 31 26
47 32 32
47 33 59
47 34 50
47 35 48
47 36 77
47 37 71
47 38 65
47 39 75
47 40 3
47 41 40
47 42 64
47 43 96
47 44 48
47 45 98
47 46 20
48 0 50
48 1 79
48 2 56
48 3 40
48 4 19
48 5 100
48 6 92
48 7 38
48 8 15
48 9 11
48 10 13
48 11 22
48 12 66
48 13 87
48 14 65
48 15 46
48 16 11
48 17 93
48 18 61
48 19 92
48 20 76
48 21 62
48 22 59
48 23 82
48 24 78
48 25 84
48 26 3
48 27 17
48 28 74
48 29 95
48 30 11
48 31 16
48 32 80
48 33 71
48 34 78
48 35 95
48 36 92
48 37 46
48 38 17
48 39 93
48 40 99
48 41 25
48 42 67
48 43 61
48 44 84
48 45 58
48 46 38
48 47 53
49 0 27
49 1 90
49 2 67
49 3 90
49 4 71
49 5 13
49 6 6
49 7 84
49 8 19
49 9 70
49 10 81
49 11 51
49 12 62
49 13 3
49 14 70
49 15 42
49 16 58
49 17 43
49 18 94
49 19 68
49 20 19
49 21 65
49 22 42
49 23 9
49 24 73
49 25 79
49 26 47
49 27 26
49 28 99
49 29 26
49 30 89
49 31 18
49 32 69
49 33 85
49 34 4
49 35 88
49 36 30
49 37 23
49 38 18
49 39 14
49 40 14
49 41 48
49 42 27
49 43 50
49 44 68
49 45 29
49 46 8
49 47 82
49 48 31
50 0 13
50 1 22
50 2 18
50 3 97
50 4 43
50 5 38
50 6 12
50 7 55
50 8 51
50 9 10
50 10 16
50 11 95
50 12 100
50 13 60
50 14 33
50 15 94
50 16 71
50 17 69
50 18 9
50 19 53
50 20 43
50 21 69
50 22 80
50 23 44
50 24 9
50 25 91
50 26 76
50 27 62
50 28 6
50 29 15
50 30 33
50 31 23
50 32 74
50 33 17
50 34 81
50 35 39
50 36 67
50 37 18
50 38 88
50 39 53
50 40 71
50 41 85
50 42 99
50 43 35
50 44 13
50 45 21
50 46 96
50 47 55
50 48 65
50 49 58
51 0 46
51 1 83
51 2 69
51 3 43
51 4 44
51 5 2
51 6 40
51 7 63
51 8 54
51 9 14
51 10 38
51 11 74
51 12 96
51 13 79
51 14 90
51 15 6
51 16 53
51 17 23
51 18 17
51 19 74
51 20 74
51 21 2
51 22 6
51 23 10
51 24 9
51 25 7
51 26 13
51 27 5
51 28 8
51 29 46
51 30 100
51 31 17
51 32 52
51 33 41
51 34 34
51 35 74
51 36 16
51 37 27
51 38 15
51 39 14
51 40 69
51 41 36
51 42 89
51 43 3
51 44 65
51 45 1
51 46 81
51 47 35
51 48 90
51 49 29
51 50 54
52 0 16
52 1 50
52 2 8
52 3 57
52 4 74
52 5 29
52 6 59
52 7 52
52 8 52
52 9 54
52 10 40
52 11 8
52 12 73
52 13 29
52 14 74
52 15 2
52 16 87
52 17 42
52 18 52
52 19 83
52 20 36
52 21 54
52 22 24
52 23 74
52 24 98
52 25 19
52 26 94
52 27 19
52 28 3
52 29 90
52 30 79
52 31 12
52 32 19
52 33 25
52 34 89
52 35 45
52 36 55
52 37 88
52 38 43
52 39 79
52 40 46
52 41 3
52 42 33
52 43 20
52 44 84
52 45 20
52 46 92
52 47 53
52 48 40
52 49 94
52 50 39
52 51 62
53 0 81
53 1 80
53 2 96
53 3 47
53 4 70
53 5 9
53 6 2
53 7 14
53 8 7
53 9 88
53 10 79
53 11 91
53 12 57
53 13 32
53 14 12
53 15 6
53 16 67
53 17 47
53 18 55
53 19 28
53 20 60
53 21 91
53 22 79
53 23 50
53 24 71
53 25 1
53 26 7
53 27 75
53 28 59
53 29 63
53 30 21
53 31 26
53 32 6
53 33 47
53 34 36
53 35 95
53 36 87
53 37 57
53 38 53
53 39 7
53 40 81
53 41 47
53 42 59
53 43 43
53 44 48
53 45 19
53 46 36
53 47 78
53 48 93
53 49 92
53 50 76
53 51 11
53 52 94
54 0 16
54 1 37
54 2 89
54 3 67
54 4 68
54 5 76
54 6 57
54 7 88
54 8 48
54 9 45
54 10 99
54 11 8
54 12 75
54 13 32
54 14 29
54 15 15
54 16 35
54 17 96
54 18 60
54 19 37
54 20 47
54 21 16
54 22 65
54 23 92
54 24 34
54 25 54
54 26 92
54 27 30
54 28 26
54 29 10
54 30 9
54 31 17
54 32 29
54 33 7
54 34 93
54 35 48
54 36 32
54 37 44
54 38 81
54 39 20
54 40 49
54 41 8
54 42 44
54 43 70
54 44 95
54 45 16
54 46 70
54 47 61
54 48 68
54 49 41
54 50 48
54 51 5
54 52 76
54 53 49
55 0 93
55 1 14
55 2 23
55 3 32
55 4 65
55 5 30
55 6 55
55 7 30
55 8 59
55 9 4
55 10 20
55 11 72
55 12 77
55 13 84
55 14 7
55 15 79
55 16 5
55 17 45
55 18 53
55 19 3
55 20 53
55 21 95
55 22 38
55 23 8
55 24 46
55 25 8
55 26 12
55 27 6
55 28 48
55 29 77
55 30 21
55 31 6
55 32 86
55 33 1
55 34 16
55 35 47
55 36 88
55 37 38
55 38 84
55 39 11
55 40 48
55 41 84
55 42 15
55 43 40
55 44 2
55 45 71
55 46 100
55 47 15
55 48 62
55 49 85
55 50 29
55 51 56
55 52 41
55 53 56
55 54 27
56 0 53
56 1 75
56 2 60
56 3 57
56 4 48
56 5 29
56 6 41
56 7 56
56 8 20
56 9 20
56 10 48
56 11 17
56 12 34
56 13 19
56 14 34
56 15 2
56 16 78
56 17 2
56 18 72
56 19 61
56 20 84
56 21 70
56 22 76
56 23 2
56 24 96
56 25 46
56 26 39
56 27 17
56 28 68
56 29 30
56 30 27
56 31 70
56 32 64
56 33 64
56 34 81
56 35 7
56 36 14
56 37 45
56 38 27
56 39 40
56 40 52
56 41 81
56 42 92
56 43 98
56 44 21
56 45 71
56 46 74
56 47 79
56 48 44
56 49 79
56 50 15
56 51 20
56 52 79
56 53 9
56 54 78
56 55 83
57 0 11
57 1 6
57 2 22
57 3 18
57 4 54
57 5 46
57 6 30
57 7 43
57 8 62
57 9 94
57 10 37
57 11 79
57 12 72
57 13 24
57 14 47
57 15 98
57 16 31
57 17 51
57 18 60
57 19 89
57 20 70
57 21 5
57 22 31
57 23 50
57 24 47
57 25 56
57 26 33
57 27 59
57 28 49
57 29 68
57 30 6
57 31 75
57 32 38
57 33 30
57 34 4
57 35 86
57 36 86
57 37 8
57 38 74
57 39 90
57 40 15
57 41 11
57 42 34
57 43 88
57 44 59
57 45 59
57 46 34
57 47 19
57 48 94
57 49 100
57 50 2
57 51 65
57 52 24
57 53 19
57 54 33
57 55 13
57 56 96
58 0 22
58 1 55
58 2 39
58 3 3
58 4 8
58 5 83
58 6 69
58 7 85
58 8 45
58 9 53
58 10 17
58 11 33
58 12 17
58 13 93
58 14 8
58 15 83
58 16 19
58 17 62
58 18 39
58 19 17
58 20 98
58 21 83
58 22 43
58 23 30
58 24 81
58 25 39
58 26 41
58 27 37
58 28 40
58 29 8
58 30 11
58 31 10
58 32 68
58 33 65
58 34 8
58 35 77
58 36 87
58 37 61
58 38 2
58 39 27
58 40 99
58 41 76
58 42 42
58 43 100
58 44 48
58 45 90
58 46 37
58 47 53
58 48 70
58 49 33
58 50 19
58 51 36
58 52 36
58 53 92
58 54 51
58 55 14
58 56 14
58 57 97
59 0 60
59 1 25
59 2 13
59 3 20
59 4 31
59 5 57
59 6 79
59 7 39
59 8 89
59 9 75
59 10 59
59 11 69
59 12 49
59 13 53
59 14 58
59 15 55
59 16 15
59 17 71
59 18 38
59 19 78
59 20 54
59 21 84
59 22 52
59 23 23
59 24 88
59 25 93
59 26 4
59 27 3
59 28 60
59 29 53
59 30 81
59 31 52
59 32 85
59 33 100
59 34 93
59 35 12
59 36 88
59 37 94
59 38 20
59 39 87
59 40 75
59 41 9
59 42 56
59 43 47
59 44 14
59 45 100
59 46 92
59 47 94
59 48 5
59 49 46
59 50 83
59 51 16
59 52 64
59 53 44
59 54 83
59 55 10
59 56 66
59 57 96
59 58 62
60 0 43
60 1 9
60 2 27
60 3 15
60 4 70
60 5 89
60 6 12
60 7 36
60 8 47
60 9 20
60 10 13
60 11 34
60 12 93
60 13 14
60 14 39
60 15 86
60 16 93
60 17 20
60 18 97
60 19 70
60 20 56
60 21 86
60 22 87
60 23 21
60 24 56
60 25 84
60 26 55
60 27 1
60 28 20
60 29 28
60 30 19
60 31 87
60 32 62
60 33 51
60 34 24
60 35 89
60 36 46
60 37 46
60 38 93
60 39 86
60 40 49
60 41 77
60 42 75
60 43 26
60 44 57
60 45 4
60 46 17
60 47 19
60 48 96
60 49 98
60 50 6
60 51 45
60 52 3
60 53 28
60 54 54
60 55 26
60 56 76
60 57 43
60 58 30
60 59 53
61 0 63
61 1 92
61 2 48
61 3 64
61 4 76
61 5 45
61 6 89
61 7 13
61 8 45
61 9 20
61 10 93
61 11 71
61 12 40
61 13 10
61 14 54
61 15 56
61 16 35
61 17 80
61 18 21
61 19 79
61 20 84
61 21 82
61 22 59
61 23 51
61 24 40
61 25 90
61 26 48
61 27 2
61 28 30
61 29 66
61 30 14
61 31 85
61 32 74
61 33 9
61 34 19
61 35 79
61 36 8
61 37 47
61 38 55
61 39 15
61 40 44
61 41 59
61 42 22
61 43 91
61 44 85
61 45 66
61 46 79
61 47 33
61 48 77
61 49 9
61 50 5
61 51 35
61 52 60
61 53 95
61 54 5
61 55 89
61 56 50
61 57 4
61 58 50
61 59 67
61 60 80
62 0 65
62 1 27
62 2 37
62 3 56
62 4 58
62 5 58
62 6 6
62 7 27
62 8 95
62 9 93
62 10 42
62 11 72
62 12 81
62 13 93
62 14 7
62 15 32
62 16 73
62 17 70
62 18 98
62 19 74
62 20 77
62 21 29
62 22 90
62 23 44
62 24 43
62 25 45
62 26 18
62 27 42
62 28 74
62 29 62
62 30 49
62 31 41
62 32 35
62 33 3
62 34 29
62 35 18
62 36 32
62 37 24
62 38 2
62 39 90
62 40 8
62 41 45
62 42 41
62 43 49
62 44 70
62 45 59
62 46 34
62 47 48
62 48 37
62 49 84
62 50 23
62 51 89
62 52 80
62 53 9
62 54 76
62 55 14
62 56 3
62 57 74
62 58 49
62 59 86
62 60 60
62 61 50
63 0 72
63 1 21
63 2 38
63 3 30
63 4 53
63 5 19
63 6 28
63 7 47
63 8 94
63 9 81
63 10 72
63 11 71
63 12 56
63 13 31
63 14 62
63 15 58
63 16 31
63 17 66
63 18 26
63 19 50
63 20 95
63 21 9
63 22 18
63 23 52
63 24 38
63 25 47
63 26 15
63 27 23
63 28 32
63 29 54
63 30 72
63 31 82
63 32 53
63 33 62
63 34 97
63 35 91
63 36 67
63 37 4
63 38 43
63 39 71
63 40 70
63 41 53
63 42 28
63 43 83
63 44 16
63 45 45
63 46 39
63 47 48
63 48 92
63 49 22
63 50 64
63 51 17
63 52 10
63 53 76
63 54 81
63 55 97
63 56 30
63 57 56
63 58 72
63 59 100
63 60 48
63 61 65
63 62 61
64 0 70
64 1 85
64 2 79
64 3 86
64 4 6
64 5 78
64 6 48
64 7 60
64 8 94
64 9 71
64 10 69
64 11 69
64 12 91
64 13 28
64 14 32
64 15 15
64 16 52
64 17 35
64 18 96
64 19 24
64 20 85
64 21 64
64 22 33
64 23 43
64 24 60
64 25 5
64 26 37
64 27 14
64 28 26
64 29 1
64 30 20
64 31 5
64 32 7
64 33 33
64 34 3
64 35 22
64 36 71
64 37 41
64 38 98
64 39 41
64 40 7
64 41 83
64 42 39
64 43 26
64 44 43
64 45 65
64 46 90
64 47 34
64 48 99
64 49 95
64 50 54
64 51 14
64 52 56
64 53 41
64 54 62
64 55 50
64 56 69
64 57 1
64 58 5
64 59 12
64 60 83
64 61 5
64 62 45
64 63 7
65 0 15
65 1 25
65 2 18
65 3 54
65 4 100
65 5 45
65 6 7
65 7 15
65 8 35
65 9 23
65 10 68
65 11 61
65 12 61
65 13 55
65 14 11
65 15 53
65 16 60
65 17 11
65 18 86
65 19 70
65 20 65
65 21 7
65 22 26
65 23 13
65 24 7
65 25 37
65 26 35
65 27 64
65 28 48
65 29 79
65 30 35
65 31 78
65 32 78
65 33 37
65 34 7
65 35 51
65 36 63
65 37 3
65 38 83
65 39 71
65 40 81
65 41 33
65 42 88
65 43 55
65 44 89
65 45 79
65 46 24
65 47 37
65 48 95
65 49 23
65 50 49
65 51 46
65 52 30
65 53 98
65 54 11
65 55 98
65 56 55
65 57 3
65 58 4
65 59 83
65 60 38
65 61 33
65 62 89
65 63 35
65 64 88
66 0 90
66 1 87
66 2 100
66 3 30
66 4 46
66 5 24
66 6 50
66 7 62
66 8 72
66 9 5
66 10 2
66 11 27
66 12 53
66 13 34
66 14 50
66 15 86
66 16 54
66 17 8
66 18 6
66 19 83
66 20 11
66 21 63
66 22 15
66 23 27
66 24 47
66 25 31
66 26 91
66 27 48
66 28 65
66 29 53
66 30 85
66 31 82
66 32 37
66 33 53
66 34 90
66 35 10
66 36 11
66 37 59
66 38 29
66 39 52
66 40 1
66 41 37
66 42 97
66 43 74
66 44 23
66 45 64
66 46 42
66 47 85
66 48 10
66 49 74
66 50 13
66 51 18
66 52 95
66 53 30
66 54 11
66 55 18
66 56 70
66 57 17
66 58 4
66 59 92
66 60 43
66 61 61
66 62 20
66 63 85
66 64 55
66 65 19
67 0 5
67 1 92
67 2 32
67 3 93
67 4 22
67 5 23
67 6 81
67 7 53
67 8 27
67 9 70
67 10 57
67 11 95
67 12 42
67 13 50
67 14 62
67 15 46
67 16 19
67 17 28
67 18 42
67 19 7
67 20 58
67 21 37
67 22 11
67 23 87
67 24 28
67 25 45
67 26 4
67 27 76
67 28 4
67 29 48
67 30 35
67 31 56
67 32 14
67 33 84
67 34 33
67 35 41
67 36 59
67 37 85
67 38 58
67 39 19
67 40 63
67 41 36
67 42 32
67 43 6
67 44 50
67 45 89
67 46 42
67 47 53
67 48 59
67 49 49
67 50 78
67 51 67
67 52 47
67 53 54
67 54 46
67 55 31
67 56 47
67 57 83
67 58 39
67 59 30
67 60 70
67 61 94
67 62 72
67 63 34
67 64 63
67 65 55
67 66 13
68 0 75
68 1 87
68 2 25
68 3 54
68 4 33
68 5 50
68 6 13
68 7 27
68 8 17
68 9 26
68 10 96
68 11 32
68 12 93
68 13 37
68 14 95
68 15 53
68 16 14
68 17 75
68 18 35
68 19 69
68 20 41
68 21 14
68 22 24
68 23 88
68 24 64
68 25 2
68 26 52
68 27 58
68 28 63
68 29 65
68 30 78
68 31 44
68 32 60
68 33 53
68 34 51
68 35 62
68 36 68
68 37 97
68 38 4
68 39 12
68 40 26
68 41 79
68 42 96
68 43 56
68 44 73
68 45 21
68 46 4
68 47 30
68 48 11
68 49 40
68 50 88
68 51 92
68 52 55
68 53 41
68 54 66
68 55 24
68 56 70
68 57 33
68 58 2
68 59 69
68 60 34
68 61 90
68 62 66
68 63 55
68 64 98
68 65 100
68 66 30
68 67 32
69 0 13
69 1 67
69 2 15
69 3 40
69 4 53
69 5 61
69 6 84
69 7 67
69 8 51
69 9 31
69 10 76
69 11 79
69 12 30
69 13 26
69 14 99
69 15 27
69 16 99
69 17 91
69 18 32
69 19 52
69 20 29
69 21 31
69 22 13
69 23 60
69 24 58
69 25 54
69 26 16
69 27 28
69 28 64
69 29 53
69 30 30
69 31 64
69 32 12
69 33 70
69 34 93
69 35 38
69 36 77
69 37 55
69 38 64
69 39 41
69 40 77
69 41 30
69 42 14
69 43 64
69 44 90
69 45 97
69 46 78
69 47 83
69 48 21
69 49 68
69 50 6
69 51 94
69 52 55
69 53 91
69 54 85
69 55 52
69 56 8
69 57 15
69 58 47
69 59 84
69 60 53
69 61 15
69 62 58
69 63 98
69 64 8
69 65 52
69 66 72
69 67 96
69 68 81
